c FILE:  brock200_3.b
c
c Graph Generator
c
c By: Mark Brockington (brock@cs.ualberta.ca)
c and Joe Culberson (joe@cs.ualberta.ca)
c
c Graph Size:200, Clique Size: 15
c Seed:32, Edge Density:  0.60000
c Depth 2 Hiding
c
c Clique Elements are:
c 37 177 129 157 143 97 96 117 28 172 
c 35 83 57 103 11 
c
c Estimated Size of Uncompressed File:   0.1MB
c
p edge 200 12048